448,173
558,575
654,491
624,388
751,309
996,177
1069,124
874,672
762,566
417,770
488,672
795,443
937,323
1028,229
787,512
1045,670
789,619
663,524
654,491
558,575
488,672
168,572
339,295
254,267
624,388
1108,545
751,309
727,264
